g3 1 1 0	# problem nf3_30
 30 0 1 0 0	# vars, constraints, objectives, ranges, eqns
 0 1	# nonlinear constraints, objectives
 0 0	# network constraints: nonlinear, linear
 0 30 0	# nonlinear vars in constraints, objectives, both
 0 0 0 1	# linear network variables; functions; arith, flags
 0 0 0 0 0	# discrete variables: binary, integer, nonlinear (b,c,o)
 0 30	# nonzeros in Jacobian, gradients
 0 0	# max name lengths: constraints, variables
 0 0 0 0 0	# common exprs: b,c,o,c1,o1
O0 0
o54
59
o5
o1
v0
n1
n2
o5
o1
v1
n1
n2
o5
o1
v2
n1
n2
o5
o1
v3
n1
n2
o5
o1
v4
n1
n2
o5
o1
v5
n1
n2
o5
o1
v6
n1
n2
o5
o1
v7
n1
n2
o5
o1
v8
n1
n2
o5
o1
v9
n1
n2
o5
o1
v10
n1
n2
o5
o1
v11
n1
n2
o5
o1
v12
n1
n2
o5
o1
v13
n1
n2
o5
o1
v14
n1
n2
o5
o1
v15
n1
n2
o5
o1
v16
n1
n2
o5
o1
v17
n1
n2
o5
o1
v18
n1
n2
o5
o1
v19
n1
n2
o5
o1
v20
n1
n2
o5
o1
v21
n1
n2
o5
o1
v22
n1
n2
o5
o1
v23
n1
n2
o5
o1
v24
n1
n2
o5
o1
v25
n1
n2
o5
o1
v26
n1
n2
o5
o1
v27
n1
n2
o5
o1
v28
n1
n2
o5
o1
v29
n1
n2
o16
o2
v1
v0
o16
o2
v2
v1
o16
o2
v3
v2
o16
o2
v4
v3
o16
o2
v5
v4
o16
o2
v6
v5
o16
o2
v7
v6
o16
o2
v8
v7
o16
o2
v9
v8
o16
o2
v10
v9
o16
o2
v11
v10
o16
o2
v12
v11
o16
o2
v13
v12
o16
o2
v14
v13
o16
o2
v15
v14
o16
o2
v16
v15
o16
o2
v17
v16
o16
o2
v18
v17
o16
o2
v19
v18
o16
o2
v20
v19
o16
o2
v21
v20
o16
o2
v22
v21
o16
o2
v23
v22
o16
o2
v24
v23
o16
o2
v25
v24
o16
o2
v26
v25
o16
o2
v27
v26
o16
o2
v28
v27
o16
o2
v29
v28
b
0 -900 900
0 -900 900
0 -900 900
0 -900 900
0 -900 900
0 -900 900
0 -900 900
0 -900 900
0 -900 900
0 -900 900
0 -900 900
0 -900 900
0 -900 900
0 -900 900
0 -900 900
0 -900 900
0 -900 900
0 -900 900
0 -900 900
0 -900 900
0 -900 900
0 -900 900
0 -900 900
0 -900 900
0 -900 900
0 -900 900
0 -900 900
0 -900 900
0 -900 900
0 -900 900
k29
0
0
0
0
0
0
0
0
0
0
0
0
0
0
0
0
0
0
0
0
0
0
0
0
0
0
0
0
0
G0 30
0 0
1 0
2 0
3 0
4 0
5 0
6 0
7 0
8 0
9 0
10 0
11 0
12 0
13 0
14 0
15 0
16 0
17 0
18 0
19 0
20 0
21 0
22 0
23 0
24 0
25 0
26 0
27 0
28 0
29 0
